Instance name : bar-n100-1
Authors       : Pix
Date          : 2025
Reference     : Simplified Hybrid ACO + Pure Greedy
Solution
Route 1 : 31 14 81 17 67 2 10 21 60 52 71 64 49 1 27 26 76 77 99 6 56 51
Route 2 : 30 80 7 57 9 59 5 55 37 87 32 23 82 16 36 66 50 100 86 73
Route 3 : 33 39 47 97 38 83 28 88 44 89 8 78 94 58 3 53
Route 4 : 13 48 98 41 63 34 84 29 91 79 11 22 72 61 25 75
Route 5 : 35 24 85 15 74 65 43 12 18 46 62 68 96 93
Route 6 : 42 20 40 92 70 19 69 45 4 90 95 54
